Route #1: 1 64 3 6 72 59 1 
Route #2: 1 1 2 51 57 73 60 63 61 44 49 45 47 52 62 9 1 
Route #3: 1 7 75 48 40 39 41 18 12 21 22 58 65 54 1 
Route #4: 1 5 74 4 56 20 17 14 10 55 8 1 
Route #5: 1 27 28 25 23 19 15 26 71 67 66 69 13 70 68 11 32 1 
Route #6: 1 36 50 29 33 37 42 35 34 46 38 1 
Route #7: 1 24 16 1 
Route #8: 1 53 43 31 1 
Route #9: 1 30 1 

Cost 2112.61
Time 0.7373


 * Another infos *

 Iterations: 76 Time: 0.7373 sec - 0.0123 min - 0.0002 horas
0.0000 h 0.0123 min
Problem dimension: 76
